gen	cost
1	1466
2	1458
3	1445
4	1418
5	1409
6	1402
7	1390
8	1378
9	1373
10	1366
11	1357
12	1337
13	1322
14	1318
15	1309
16	1302
17	1298
18	1296
19	1277
20	1277
21	1274
22	1246
23	1236
24	1234
25	1231
26	1228
27	1226
28	1222
29	1219
30	1211
31	1192
32	1185
33	1182
34	1180
35	1174
36	1170
37	1168
38	1168
39	1164
40	1160
41	1159
42	1157
43	1153
44	1153
45	1153
46	1149
47	1146
48	1143
49	1142
50	1142

